(set-info :source |printed by MathSAT|)
(declare-fun invalid_me.next () Int)
(declare-fun exclusive_me () Int)
(declare-fun param_etat_me3 () Bool)
(declare-fun modified_me () Int)
(declare-fun call_mesi.ite3 () Int)
(declare-fun param_etat_me1 () Bool)
(declare-fun call_mesi.ite32 () Int)
(declare-fun call_mesi.exclusive_me.next () Int)
(declare-fun call_mesi.ite15 () Int)
(declare-fun call_mesi.ite14 () Int)
(declare-fun call_mesi.ite30 () Int)
(declare-fun call_Sofar.Sofar () Bool)
(declare-fun call_mesi.ite.next () Int)
(declare-fun call_mesi.ite32.next () Int)
(declare-fun call_mesi.flby2 () Int)
(declare-fun call_mesi.ite28.next () Int)
(declare-fun call_mesi.ite8.next () Int)
(declare-fun param_etat_me2 () Bool)
(declare-fun call_mesi.ite5.next () Int)
(declare-fun call_mesi.ite22 () Int)
(declare-fun call_mesi.garde_me4.next () Bool)
(declare-fun call_mesi.garde_me1.next () Bool)
(declare-fun call_mesi.flby2.next () Int)
(declare-fun call_mesi.ite6.next () Int)
(declare-fun call_mesi.ite7.next () Int)
(declare-fun call_mesi.ite11 () Int)
(declare-fun call_mesi.ite27.next () Int)
(declare-fun call_mesi.ite16 () Int)
(declare-fun call_mesi.ite5 () Int)
(declare-fun call_mesi.exclusive_me () Int)
(declare-fun param_etat_me4.next () Bool)
(declare-fun call_mesi.ite23 () Int)
(declare-fun call_mesi.shared_me.next () Int)
(declare-fun call_mesi.ite4.next () Int)
(declare-fun call_mesi.invalid_me.next () Int)
(declare-fun call_mesi.modified_me () Int)
(declare-fun call_mesi.ite2 () Int)
(declare-fun call_mesi.ite19 () Int)
(declare-fun call_mesi.flby4 () Int)
(declare-fun call_mesi.ite12.next () Int)
(declare-fun call_mesi.ite22.next () Int)
(declare-fun call_mesi.modified_me.next () Int)
(declare-fun call_mesi.invalid_me () Int)
(declare-fun call_mesi.ite9.next () Int)
(declare-fun shared_me () Int)
(declare-fun call_mesi.shared_me () Int)
(declare-fun call_mesi.ite24.next () Int)
(declare-fun call_mesi.ite26.next () Int)
(declare-fun call_mesi.ite31 () Int)
(declare-fun call_Sofar.flby () Bool)
(declare-fun call_mesi.ite26 () Int)
(declare-fun call_mesi.ite19.next () Int)
(declare-fun env.next () Bool)
(declare-fun call_mesi.ite3.next () Int)
(declare-fun call_mesi.ite29.next () Int)
(declare-fun call_mesi.ite17.next () Int)
(declare-fun call_mesi.ite13.next () Int)
(declare-fun call_Sofar.Sofar.next () Bool)
(declare-fun param_etat_me2.next () Bool)
(declare-fun call_mesi.flby4.next () Int)
(declare-fun call_excludes4.excludes () Bool)
(declare-fun call_mesi.ite17 () Int)
(declare-fun call_mesi.ite8 () Int)
(declare-fun call_mesi.garde_me2.next () Bool)
(declare-fun call_mesi.ite21 () Int)
(declare-fun call_mesi.ite9 () Int)
(declare-fun invalid_me () Int)
(declare-fun shared_me.next () Int)
(declare-fun param_etat_me1.next () Bool)
(declare-fun param_etat_me3.next () Bool)
(declare-fun call_Sofar.flby.next () Bool)
(declare-fun call_mesi.ite21.next () Int)
(declare-fun call_mesi.ite2.next () Int)
(declare-fun _OK_ () Bool)
(declare-fun call_mesi.flby () Int)
(declare-fun call_mesi.ite11.next () Int)
(declare-fun call_mesi.ite16.next () Int)
(declare-fun call_mesi.ite10.next () Int)
(declare-fun call_mesi.ite18.next () Int)
(declare-fun call_excludes4.excludes.next () Bool)
(declare-fun call_mesi.ite7 () Int)
(declare-fun call_mesi.ite31.next () Int)
(declare-fun call_mesi.ite20.next () Int)
(declare-fun call_mesi.ite15.next () Int)
(declare-fun call_mesi.flby3 () Int)
(declare-fun call_mesi.ite6 () Int)
(declare-fun call_mesi.ite24 () Int)
(declare-fun call_mesi.ite14.next () Int)
(declare-fun exclusive_me.next () Int)
(declare-fun call_mesi.ite25 () Int)
(declare-fun call_mesi.ite18 () Int)
(declare-fun call_mesi.flby.next () Int)
(declare-fun call_mesi.ite29 () Int)
(declare-fun call_mesi.ite23.next () Int)
(declare-fun call_mesi.garde_me3.next () Bool)
(declare-fun _OK_.next () Bool)
(declare-fun modified_me.next () Int)
(declare-fun call_mesi.ite25.next () Int)
(declare-fun call_mesi.ite13 () Int)
(declare-fun env () Bool)
(declare-fun call_mesi.ite10 () Int)
(declare-fun call_mesi.ite () Int)
(declare-fun call_mesi.ite30.next () Int)
(declare-fun call_mesi.flby3.next () Int)
(declare-fun call_mesi.ite27 () Int)
(declare-fun param_etat_me4 () Bool)
(define-fun .def_1143 () Bool (= call_Sofar.flby.next call_Sofar.Sofar.next))
(define-fun .def_1138 () Bool (and param_etat_me4.next param_etat_me3.next))
(define-fun .def_1133 () Bool (and param_etat_me1.next param_etat_me2.next))
(define-fun .def_1132 () Bool (and param_etat_me3.next param_etat_me1.next))
(define-fun .def_1134 () Bool (or .def_1132 .def_1133))
(define-fun .def_1131 () Bool (and param_etat_me4.next param_etat_me1.next))
(define-fun .def_1135 () Bool (or .def_1131 .def_1134))
(define-fun .def_1130 () Bool (and param_etat_me3.next param_etat_me2.next))
(define-fun .def_1136 () Bool (or .def_1130 .def_1135))
(define-fun .def_1129 () Bool (and param_etat_me4.next param_etat_me2.next))
(define-fun .def_1137 () Bool (or .def_1129 .def_1136))
(define-fun .def_1139 () Bool (or .def_1137 .def_1138))
(define-fun .def_1140 () Bool (not .def_1139))
(define-fun .def_1141 () Bool (= call_excludes4.excludes.next .def_1140))
(define-fun .def_1127 () Bool (= call_mesi.flby4.next call_mesi.invalid_me.next))
(define-fun .def_1125 () Bool (= call_mesi.flby3.next call_mesi.shared_me.next))
(define-fun .def_1123 () Bool (= call_mesi.flby2.next call_mesi.exclusive_me.next))
(define-fun .def_1121 () Bool (= call_mesi.flby.next call_mesi.modified_me.next))
(define-fun .def_1117 () Bool (= call_mesi.ite30.next call_mesi.ite31.next))
(define-fun .def_1118 () Bool (or param_etat_me2.next .def_1117))
(define-fun .def_1114 () Bool (= call_mesi.ite26.next call_mesi.ite31.next))
(define-fun .def_1099 () Bool (not param_etat_me2.next))
(define-fun .def_1115 () Bool (or .def_1099 .def_1114))
(define-fun .def_1111 () Bool (= call_mesi.ite22.next call_mesi.ite23.next))
(define-fun .def_1112 () Bool (or param_etat_me2.next .def_1111))
(define-fun .def_1108 () Bool (= call_mesi.ite18.next call_mesi.ite23.next))
(define-fun .def_1109 () Bool (or .def_1099 .def_1108))
(define-fun .def_1105 () Bool (= call_mesi.ite14.next call_mesi.ite15.next))
(define-fun .def_1106 () Bool (or param_etat_me2.next .def_1105))
(define-fun .def_1102 () Bool (= call_mesi.ite10.next call_mesi.ite15.next))
(define-fun .def_1103 () Bool (or .def_1099 .def_1102))
(define-fun .def_1098 () Bool (= call_mesi.ite2.next call_mesi.ite7.next))
(define-fun .def_1100 () Bool (or .def_1098 .def_1099))
(define-fun .def_1095 () Bool (= call_mesi.ite6.next call_mesi.ite7.next))
(define-fun .def_1097 () Bool (or .def_1095 param_etat_me2.next))
(define-fun .def_1101 () Bool (and .def_1097 .def_1100))
(define-fun .def_1104 () Bool (and .def_1101 .def_1103))
(define-fun .def_1107 () Bool (and .def_1104 .def_1106))
(define-fun .def_1110 () Bool (and .def_1107 .def_1109))
(define-fun .def_1113 () Bool (and .def_1110 .def_1112))
(define-fun .def_1116 () Bool (and .def_1113 .def_1115))
(define-fun .def_1119 () Bool (and .def_1116 .def_1118))
(define-fun .def_1091 () Bool (= call_mesi.ite32.next call_mesi.ite31.next))
(define-fun .def_1092 () Bool (or param_etat_me1.next .def_1091))
(define-fun .def_1087 () Bool (= call_mesi.ite25.next call_mesi.ite32.next))
(define-fun .def_1070 () Bool (not param_etat_me1.next))
(define-fun .def_1088 () Bool (or .def_1070 .def_1087))
(define-fun .def_1084 () Bool (= call_mesi.ite24.next call_mesi.ite23.next))
(define-fun .def_1085 () Bool (or param_etat_me1.next .def_1084))
(define-fun .def_1080 () Bool (= call_mesi.ite17.next call_mesi.ite24.next))
(define-fun .def_1081 () Bool (or .def_1070 .def_1080))
(define-fun .def_1077 () Bool (= call_mesi.ite16.next call_mesi.ite15.next))
(define-fun .def_1078 () Bool (or param_etat_me1.next .def_1077))
(define-fun .def_1073 () Bool (= call_mesi.ite9.next call_mesi.ite16.next))
(define-fun .def_1074 () Bool (or .def_1070 .def_1073))
(define-fun .def_1069 () Bool (= call_mesi.ite.next call_mesi.ite8.next))
(define-fun .def_1071 () Bool (or .def_1069 .def_1070))
(define-fun .def_1066 () Bool (= call_mesi.ite8.next call_mesi.ite7.next))
(define-fun .def_1068 () Bool (or .def_1066 param_etat_me1.next))
(define-fun .def_1072 () Bool (and .def_1068 .def_1071))
(define-fun .def_1075 () Bool (and .def_1072 .def_1074))
(define-fun .def_1079 () Bool (and .def_1075 .def_1078))
(define-fun .def_1082 () Bool (and .def_1079 .def_1081))
(define-fun .def_1086 () Bool (and .def_1082 .def_1085))
(define-fun .def_1089 () Bool (and .def_1086 .def_1088))
(define-fun .def_1093 () Bool (and .def_1089 .def_1092))
(define-fun .def_1063 () Bool (= env.next call_Sofar.Sofar.next))
(define-fun .def_1060 () Bool (= invalid_me.next call_mesi.invalid_me.next))
(define-fun .def_1056 () Bool (= shared_me.next call_mesi.shared_me.next))
(define-fun .def_1053 () Bool (= exclusive_me.next call_mesi.exclusive_me.next))
(define-fun .def_1049 () Bool (= modified_me.next call_mesi.modified_me.next))
(define-fun .def_1043 () Bool (= call_mesi.ite29.next call_mesi.ite30.next))
(define-fun .def_1044 () Bool (or param_etat_me3.next .def_1043))
(define-fun .def_1040 () Bool (= call_mesi.ite27.next call_mesi.ite30.next))
(define-fun .def_1022 () Bool (not param_etat_me3.next))
(define-fun .def_1041 () Bool (or .def_1022 .def_1040))
(define-fun .def_1036 () Bool (= call_mesi.ite21.next call_mesi.ite22.next))
(define-fun .def_1037 () Bool (or param_etat_me3.next .def_1036))
(define-fun .def_1033 () Bool (= call_mesi.ite19.next call_mesi.ite22.next))
(define-fun .def_1034 () Bool (or .def_1022 .def_1033))
(define-fun .def_1029 () Bool (= call_mesi.ite13.next call_mesi.ite14.next))
(define-fun .def_1030 () Bool (or param_etat_me3.next .def_1029))
(define-fun .def_1026 () Bool (= call_mesi.ite11.next call_mesi.ite14.next))
(define-fun .def_1027 () Bool (or .def_1022 .def_1026))
(define-fun .def_1021 () Bool (= call_mesi.ite3.next call_mesi.ite6.next))
(define-fun .def_1023 () Bool (or .def_1021 .def_1022))
(define-fun .def_1018 () Bool (= call_mesi.ite5.next call_mesi.ite6.next))
(define-fun .def_1020 () Bool (or .def_1018 param_etat_me3.next))
(define-fun .def_1024 () Bool (and .def_1020 .def_1023))
(define-fun .def_1028 () Bool (and .def_1024 .def_1027))
(define-fun .def_1031 () Bool (and .def_1028 .def_1030))
(define-fun .def_1035 () Bool (and .def_1031 .def_1034))
(define-fun .def_1038 () Bool (and .def_1035 .def_1037))
(define-fun .def_1042 () Bool (and .def_1038 .def_1041))
(define-fun .def_1045 () Bool (and .def_1042 .def_1044))
(define-fun .def_1014 () Bool (<= 0 shared_me.next))
(define-fun .def_1012 () Bool (not env.next))
(define-fun .def_1015 () Bool (or .def_1012 .def_1014))
(define-fun .def_1016 () Bool (= _OK_.next .def_1015))
(define-fun .def_1046 () Bool (and .def_1016 .def_1045))
(define-fun .def_1050 () Bool (and .def_1046 .def_1049))
(define-fun .def_1054 () Bool (and .def_1050 .def_1053))
(define-fun .def_1057 () Bool (and .def_1054 .def_1056))
(define-fun .def_1061 () Bool (and .def_1057 .def_1060))
(define-fun .def_1064 () Bool (and .def_1061 .def_1063))
(define-fun .def_1094 () Bool (and .def_1064 .def_1093))
(define-fun .def_1120 () Bool (and .def_1094 .def_1119))
(define-fun .def_1122 () Bool (and .def_1120 .def_1121))
(define-fun .def_1124 () Bool (and .def_1122 .def_1123))
(define-fun .def_1126 () Bool (and .def_1124 .def_1125))
(define-fun .def_1128 () Bool (and .def_1126 .def_1127))
(define-fun .def_1142 () Bool (and .def_1128 .def_1141))
(define-fun .def_1144 () Bool (and .def_1142 .def_1143))
(define-fun .def_797 () Bool (= call_Sofar.flby call_Sofar.Sofar))
(define-fun .def_792 () Bool (and param_etat_me4 param_etat_me3))
(define-fun .def_787 () Bool (and param_etat_me1 param_etat_me2))
(define-fun .def_786 () Bool (and param_etat_me3 param_etat_me1))
(define-fun .def_788 () Bool (or .def_786 .def_787))
(define-fun .def_785 () Bool (and param_etat_me4 param_etat_me1))
(define-fun .def_789 () Bool (or .def_785 .def_788))
(define-fun .def_784 () Bool (and param_etat_me3 param_etat_me2))
(define-fun .def_790 () Bool (or .def_784 .def_789))
(define-fun .def_783 () Bool (and param_etat_me4 param_etat_me2))
(define-fun .def_791 () Bool (or .def_783 .def_790))
(define-fun .def_793 () Bool (or .def_791 .def_792))
(define-fun .def_794 () Bool (not .def_793))
(define-fun .def_795 () Bool (= call_excludes4.excludes .def_794))
(define-fun .def_781 () Bool (= call_mesi.flby4 call_mesi.invalid_me))
(define-fun .def_779 () Bool (= call_mesi.flby3 call_mesi.shared_me))
(define-fun .def_777 () Bool (= call_mesi.flby2 call_mesi.exclusive_me))
(define-fun .def_775 () Bool (= call_mesi.flby call_mesi.modified_me))
(define-fun .def_771 () Bool (= call_mesi.ite30 call_mesi.ite31))
(define-fun .def_772 () Bool (or param_etat_me2 .def_771))
(define-fun .def_768 () Bool (= call_mesi.ite31 call_mesi.ite26))
(define-fun .def_750 () Bool (not param_etat_me2))
(define-fun .def_769 () Bool (or .def_750 .def_768))
(define-fun .def_764 () Bool (= call_mesi.ite22 call_mesi.ite23))
(define-fun .def_765 () Bool (or param_etat_me2 .def_764))
(define-fun .def_761 () Bool (= call_mesi.ite23 call_mesi.ite18))
(define-fun .def_762 () Bool (or .def_750 .def_761))
(define-fun .def_757 () Bool (= call_mesi.ite14 call_mesi.ite15))
(define-fun .def_758 () Bool (or param_etat_me2 .def_757))
(define-fun .def_754 () Bool (= call_mesi.ite15 call_mesi.ite10))
(define-fun .def_755 () Bool (or .def_750 .def_754))
(define-fun .def_749 () Bool (= call_mesi.ite7 call_mesi.ite2))
(define-fun .def_751 () Bool (or .def_749 .def_750))
(define-fun .def_745 () Bool (= call_mesi.ite6 call_mesi.ite7))
(define-fun .def_747 () Bool (or .def_745 param_etat_me2))
(define-fun .def_752 () Bool (and .def_747 .def_751))
(define-fun .def_756 () Bool (and .def_752 .def_755))
(define-fun .def_759 () Bool (and .def_756 .def_758))
(define-fun .def_763 () Bool (and .def_759 .def_762))
(define-fun .def_766 () Bool (and .def_763 .def_765))
(define-fun .def_770 () Bool (and .def_766 .def_769))
(define-fun .def_773 () Bool (and .def_770 .def_772))
(define-fun .def_741 () Bool (= call_mesi.ite32 call_mesi.ite31))
(define-fun .def_742 () Bool (or param_etat_me1 .def_741))
(define-fun .def_737 () Bool (= call_mesi.ite25 call_mesi.ite32))
(define-fun .def_715 () Bool (not param_etat_me1))
(define-fun .def_738 () Bool (or .def_715 .def_737))
(define-fun .def_732 () Bool (= call_mesi.ite24 call_mesi.ite23))
(define-fun .def_733 () Bool (or param_etat_me1 .def_732))
(define-fun .def_728 () Bool (= call_mesi.ite17 call_mesi.ite24))
(define-fun .def_729 () Bool (or .def_715 .def_728))
(define-fun .def_723 () Bool (= call_mesi.ite16 call_mesi.ite15))
(define-fun .def_724 () Bool (or param_etat_me1 .def_723))
(define-fun .def_719 () Bool (= call_mesi.ite9 call_mesi.ite16))
(define-fun .def_720 () Bool (or .def_715 .def_719))
(define-fun .def_714 () Bool (= call_mesi.ite call_mesi.ite8))
(define-fun .def_716 () Bool (or .def_714 .def_715))
(define-fun .def_711 () Bool (= call_mesi.ite8 call_mesi.ite7))
(define-fun .def_713 () Bool (or .def_711 param_etat_me1))
(define-fun .def_717 () Bool (and .def_713 .def_716))
(define-fun .def_721 () Bool (and .def_717 .def_720))
(define-fun .def_725 () Bool (and .def_721 .def_724))
(define-fun .def_730 () Bool (and .def_725 .def_729))
(define-fun .def_734 () Bool (and .def_730 .def_733))
(define-fun .def_739 () Bool (and .def_734 .def_738))
(define-fun .def_743 () Bool (and .def_739 .def_742))
(define-fun .def_707 () Bool (= env call_Sofar.Sofar))
(define-fun .def_704 () Bool (= invalid_me call_mesi.invalid_me))
(define-fun .def_700 () Bool (= shared_me call_mesi.shared_me))
(define-fun .def_697 () Bool (= exclusive_me call_mesi.exclusive_me))
(define-fun .def_693 () Bool (= modified_me call_mesi.modified_me))
(define-fun .def_687 () Bool (= call_mesi.ite29 call_mesi.ite30))
(define-fun .def_688 () Bool (or param_etat_me3 .def_687))
(define-fun .def_684 () Bool (= call_mesi.ite27 call_mesi.ite30))
(define-fun .def_665 () Bool (not param_etat_me3))
(define-fun .def_685 () Bool (or .def_665 .def_684))
(define-fun .def_679 () Bool (= call_mesi.ite21 call_mesi.ite22))
(define-fun .def_680 () Bool (or param_etat_me3 .def_679))
(define-fun .def_676 () Bool (= call_mesi.ite19 call_mesi.ite22))
(define-fun .def_677 () Bool (or .def_665 .def_676))
(define-fun .def_672 () Bool (= call_mesi.ite13 call_mesi.ite14))
(define-fun .def_673 () Bool (or param_etat_me3 .def_672))
(define-fun .def_669 () Bool (= call_mesi.ite11 call_mesi.ite14))
(define-fun .def_670 () Bool (or .def_665 .def_669))
(define-fun .def_664 () Bool (= call_mesi.ite3 call_mesi.ite6))
(define-fun .def_666 () Bool (or .def_664 .def_665))
(define-fun .def_661 () Bool (= call_mesi.ite5 call_mesi.ite6))
(define-fun .def_663 () Bool (or .def_661 param_etat_me3))
(define-fun .def_667 () Bool (and .def_663 .def_666))
(define-fun .def_671 () Bool (and .def_667 .def_670))
(define-fun .def_674 () Bool (and .def_671 .def_673))
(define-fun .def_678 () Bool (and .def_674 .def_677))
(define-fun .def_681 () Bool (and .def_678 .def_680))
(define-fun .def_686 () Bool (and .def_681 .def_685))
(define-fun .def_689 () Bool (and .def_686 .def_688))
(define-fun .def_657 () Bool (<= 0 shared_me))
(define-fun .def_655 () Bool (not env))
(define-fun .def_658 () Bool (or .def_655 .def_657))
(define-fun .def_659 () Bool (= _OK_ .def_658))
(define-fun .def_690 () Bool (and .def_659 .def_689))
(define-fun .def_694 () Bool (and .def_690 .def_693))
(define-fun .def_698 () Bool (and .def_694 .def_697))
(define-fun .def_701 () Bool (and .def_698 .def_700))
(define-fun .def_705 () Bool (and .def_701 .def_704))
(define-fun .def_708 () Bool (and .def_705 .def_707))
(define-fun .def_744 () Bool (and .def_708 .def_743))
(define-fun .def_774 () Bool (and .def_744 .def_773))
(define-fun .def_776 () Bool (and .def_774 .def_775))
(define-fun .def_778 () Bool (and .def_776 .def_777))
(define-fun .def_780 () Bool (and .def_778 .def_779))
(define-fun .def_782 () Bool (and .def_780 .def_781))
(define-fun .def_796 () Bool (and .def_782 .def_795))
(define-fun .def_798 () Bool (and .def_796 .def_797))
(define-fun .def_1145 () Bool (and .def_798 .def_1144))
(define-fun .def_1006 () Bool (and call_Sofar.Sofar call_excludes4.excludes.next))
(define-fun .def_1008 () Bool (= .def_1006 call_Sofar.flby.next))
(define-fun .def_1003 () Bool (= call_mesi.ite32.next call_mesi.flby4.next))
(define-fun .def_999 () Bool (= call_mesi.ite24.next call_mesi.flby3.next))
(define-fun .def_995 () Bool (= call_mesi.ite16.next call_mesi.flby2.next))
(define-fun .def_991 () Bool (= call_mesi.ite8.next call_mesi.flby.next))
(define-fun .def_959 () Bool (<= 1 call_mesi.invalid_me))
(define-fun .def_986 () Bool (= call_mesi.garde_me4.next .def_959))
(define-fun .def_983 () Bool (= call_mesi.ite20.next 0))
(define-fun .def_862 () Bool (not call_mesi.garde_me4.next))
(define-fun .def_984 () Bool (or .def_862 .def_983))
(define-fun .def_980 () Bool (= call_mesi.ite4.next 0))
(define-fun .def_981 () Bool (or .def_862 .def_980))
(define-fun .def_978 () Bool (= call_mesi.ite12.next 1))
(define-fun .def_979 () Bool (or .def_862 .def_978))
(define-fun .def_982 () Bool (and .def_979 .def_981))
(define-fun .def_985 () Bool (and .def_982 .def_984))
(define-fun .def_987 () Bool (and .def_985 .def_986))
(define-fun .def_974 () Bool (<= 1 call_mesi.shared_me))
(define-fun .def_975 () Bool (= call_mesi.garde_me3.next .def_974))
(define-fun .def_971 () Bool (= call_mesi.ite19.next 0))
(define-fun .def_848 () Bool (not call_mesi.garde_me3.next))
(define-fun .def_972 () Bool (or .def_848 .def_971))
(define-fun .def_968 () Bool (= call_mesi.ite3.next 0))
(define-fun .def_969 () Bool (or .def_848 .def_968))
(define-fun .def_966 () Bool (= call_mesi.ite11.next 1))
(define-fun .def_967 () Bool (or .def_848 .def_966))
(define-fun .def_970 () Bool (and .def_967 .def_969))
(define-fun .def_973 () Bool (and .def_970 .def_972))
(define-fun .def_976 () Bool (and .def_973 .def_975))
(define-fun .def_963 () Bool (<= 1 call_mesi.exclusive_me))
(define-fun .def_964 () Bool (= call_mesi.garde_me2.next .def_963))
(define-fun .def_960 () Bool (= call_mesi.garde_me1.next .def_959))
(define-fun .def_956 () Bool (= call_mesi.ite.next 0))
(define-fun .def_834 () Bool (not call_mesi.garde_me1.next))
(define-fun .def_957 () Bool (or .def_834 .def_956))
(define-fun .def_954 () Bool (= call_mesi.ite9.next 0))
(define-fun .def_955 () Bool (or .def_834 .def_954))
(define-fun .def_958 () Bool (and .def_955 .def_957))
(define-fun .def_961 () Bool (and .def_958 .def_960))
(define-fun .def_950 () Bool (= call_mesi.invalid_me call_mesi.ite28.next))
(define-fun .def_951 () Bool (or call_mesi.garde_me4.next .def_950))
(define-fun .def_947 () Bool (= call_mesi.invalid_me call_mesi.ite27.next))
(define-fun .def_948 () Bool (or call_mesi.garde_me3.next .def_947))
(define-fun .def_942 () Bool (= call_mesi.invalid_me call_mesi.ite26.next))
(define-fun .def_945 () Bool (or call_mesi.garde_me2.next .def_942))
(define-fun .def_805 () Bool (not call_mesi.garde_me2.next))
(define-fun .def_943 () Bool (or .def_805 .def_942))
(define-fun .def_936 () Int (* (- 1) call_mesi.ite25.next))
(define-fun .def_937 () Int (+ call_mesi.invalid_me .def_936))
(define-fun .def_938 () Bool (= .def_937 1))
(define-fun .def_939 () Bool (or .def_834 .def_938))
(define-fun .def_934 () Bool (= call_mesi.invalid_me call_mesi.ite25.next))
(define-fun .def_935 () Bool (or call_mesi.garde_me1.next .def_934))
(define-fun .def_940 () Bool (and .def_935 .def_939))
(define-fun .def_944 () Bool (and .def_940 .def_943))
(define-fun .def_946 () Bool (and .def_944 .def_945))
(define-fun .def_949 () Bool (and .def_946 .def_948))
(define-fun .def_952 () Bool (and .def_949 .def_951))
(define-fun .def_929 () Bool (= call_mesi.shared_me call_mesi.ite20.next))
(define-fun .def_930 () Bool (or call_mesi.garde_me4.next .def_929))
(define-fun .def_926 () Bool (= call_mesi.shared_me call_mesi.ite19.next))
(define-fun .def_927 () Bool (or call_mesi.garde_me3.next .def_926))
(define-fun .def_918 () Bool (= call_mesi.shared_me call_mesi.ite18.next))
(define-fun .def_923 () Bool (or call_mesi.garde_me2.next .def_918))
(define-fun .def_920 () Bool (= call_mesi.shared_me call_mesi.ite17.next))
(define-fun .def_921 () Bool (or call_mesi.garde_me1.next .def_920))
(define-fun .def_919 () Bool (or .def_805 .def_918))
(define-fun .def_922 () Bool (and .def_919 .def_921))
(define-fun .def_924 () Bool (and .def_922 .def_923))
(define-fun .def_928 () Bool (and .def_924 .def_927))
(define-fun .def_931 () Bool (and .def_928 .def_930))
(define-fun .def_913 () Bool (= call_mesi.exclusive_me call_mesi.ite12.next))
(define-fun .def_914 () Bool (or call_mesi.garde_me4.next .def_913))
(define-fun .def_910 () Bool (= call_mesi.exclusive_me call_mesi.ite11.next))
(define-fun .def_911 () Bool (or call_mesi.garde_me3.next .def_910))
(define-fun .def_906 () Bool (= call_mesi.exclusive_me call_mesi.ite10.next))
(define-fun .def_907 () Bool (or call_mesi.garde_me2.next .def_906))
(define-fun .def_903 () Bool (= call_mesi.exclusive_me call_mesi.ite9.next))
(define-fun .def_904 () Bool (or call_mesi.garde_me1.next .def_903))
(define-fun .def_898 () Int (* (- 1) call_mesi.ite10.next))
(define-fun .def_899 () Int (+ call_mesi.exclusive_me .def_898))
(define-fun .def_900 () Bool (= .def_899 1))
(define-fun .def_901 () Bool (or .def_805 .def_900))
(define-fun .def_905 () Bool (and .def_901 .def_904))
(define-fun .def_908 () Bool (and .def_905 .def_907))
(define-fun .def_912 () Bool (and .def_908 .def_911))
(define-fun .def_915 () Bool (and .def_912 .def_914))
(define-fun .def_893 () Bool (= call_mesi.invalid_me call_mesi.ite29.next))
(define-fun .def_894 () Bool (or param_etat_me4.next .def_893))
(define-fun .def_890 () Bool (= call_mesi.ite28.next call_mesi.ite29.next))
(define-fun .def_870 () Bool (not param_etat_me4.next))
(define-fun .def_891 () Bool (or .def_870 .def_890))
(define-fun .def_886 () Bool (= call_mesi.shared_me call_mesi.ite21.next))
(define-fun .def_887 () Bool (or param_etat_me4.next .def_886))
(define-fun .def_883 () Bool (= call_mesi.ite20.next call_mesi.ite21.next))
(define-fun .def_884 () Bool (or .def_870 .def_883))
(define-fun .def_878 () Bool (= call_mesi.exclusive_me call_mesi.ite13.next))
(define-fun .def_879 () Bool (or param_etat_me4.next .def_878))
(define-fun .def_875 () Bool (= call_mesi.ite12.next call_mesi.ite13.next))
(define-fun .def_876 () Bool (or .def_870 .def_875))
(define-fun .def_869 () Bool (= call_mesi.ite4.next call_mesi.ite5.next))
(define-fun .def_871 () Bool (or .def_869 .def_870))
(define-fun .def_866 () Bool (= call_mesi.modified_me call_mesi.ite5.next))
(define-fun .def_868 () Bool (or .def_866 param_etat_me4.next))
(define-fun .def_872 () Bool (and .def_868 .def_871))
(define-fun .def_877 () Bool (and .def_872 .def_876))
(define-fun .def_880 () Bool (and .def_877 .def_879))
(define-fun .def_885 () Bool (and .def_880 .def_884))
(define-fun .def_888 () Bool (and .def_885 .def_887))
(define-fun .def_892 () Bool (and .def_888 .def_891))
(define-fun .def_895 () Bool (and .def_892 .def_894))
(define-fun .def_852 () Int (* (- 1) call_mesi.ite28.next))
(define-fun .def_857 () Int (+ call_mesi.invalid_me .def_852))
(define-fun .def_858 () Int (+ call_mesi.shared_me .def_857))
(define-fun .def_859 () Int (+ call_mesi.exclusive_me .def_858))
(define-fun .def_860 () Int (+ call_mesi.modified_me .def_859))
(define-fun .def_861 () Bool (= .def_860 1))
(define-fun .def_863 () Bool (or .def_861 .def_862))
(define-fun .def_838 () Int (* (- 1) call_mesi.ite27.next))
(define-fun .def_843 () Int (+ call_mesi.invalid_me .def_838))
(define-fun .def_844 () Int (+ call_mesi.shared_me .def_843))
(define-fun .def_845 () Int (+ call_mesi.exclusive_me .def_844))
(define-fun .def_846 () Int (+ call_mesi.modified_me .def_845))
(define-fun .def_847 () Bool (= .def_846 1))
(define-fun .def_849 () Bool (or .def_847 .def_848))
(define-fun .def_826 () Int (* (- 1) call_mesi.ite17.next))
(define-fun .def_830 () Int (+ call_mesi.shared_me .def_826))
(define-fun .def_831 () Int (+ call_mesi.exclusive_me .def_830))
(define-fun .def_832 () Int (+ call_mesi.modified_me .def_831))
(define-fun .def_833 () Bool (= .def_832 (- 2)))
(define-fun .def_835 () Bool (or .def_833 .def_834))
(define-fun .def_821 () Bool (= call_mesi.modified_me call_mesi.ite4.next))
(define-fun .def_823 () Bool (or .def_821 call_mesi.garde_me4.next))
(define-fun .def_816 () Bool (= call_mesi.modified_me call_mesi.ite3.next))
(define-fun .def_818 () Bool (or .def_816 call_mesi.garde_me3.next))
(define-fun .def_812 () Bool (= call_mesi.modified_me call_mesi.ite2.next))
(define-fun .def_813 () Bool (or call_mesi.garde_me2.next .def_812))
(define-fun .def_808 () Bool (= call_mesi.modified_me call_mesi.ite.next))
(define-fun .def_810 () Bool (or .def_808 call_mesi.garde_me1.next))
(define-fun .def_801 () Int (* (- 1) call_mesi.ite2.next))
(define-fun .def_802 () Int (+ call_mesi.modified_me .def_801))
(define-fun .def_803 () Bool (= .def_802 1))
(define-fun .def_806 () Bool (or .def_803 .def_805))
(define-fun .def_811 () Bool (and .def_806 .def_810))
(define-fun .def_814 () Bool (and .def_811 .def_813))
(define-fun .def_819 () Bool (and .def_814 .def_818))
(define-fun .def_824 () Bool (and .def_819 .def_823))
(define-fun .def_836 () Bool (and .def_824 .def_835))
(define-fun .def_850 () Bool (and .def_836 .def_849))
(define-fun .def_864 () Bool (and .def_850 .def_863))
(define-fun .def_896 () Bool (and .def_864 .def_895))
(define-fun .def_916 () Bool (and .def_896 .def_915))
(define-fun .def_932 () Bool (and .def_916 .def_931))
(define-fun .def_953 () Bool (and .def_932 .def_952))
(define-fun .def_962 () Bool (and .def_953 .def_961))
(define-fun .def_965 () Bool (and .def_962 .def_964))
(define-fun .def_977 () Bool (and .def_965 .def_976))
(define-fun .def_988 () Bool (and .def_977 .def_987))
(define-fun .def_992 () Bool (and .def_988 .def_991))
(define-fun .def_996 () Bool (and .def_992 .def_995))
(define-fun .def_1000 () Bool (and .def_996 .def_999))
(define-fun .def_1004 () Bool (and .def_1000 .def_1003))
(define-fun .def_1009 () Bool (and .def_1004 .def_1008))
(define-fun .def_1146 () Bool (and .def_1009 .def_1145))
(assert .def_1146)
